% demand
num_movements = 42;
loading_factor = [1100, 1550, 1400, 850, 1700, 900, 1550, 900, 1350, 850, 1350, 1500, 1750, 1950, 1150, 800, 1800, 850, 850, 1350, 1950, 800, 1600, 850, 1050, 1450, 950, 1400, 1500, 1400, 2000, 1550, 1550, 1600, 1250, 1000, 900, 1350, 1450, 1400, 1750, 1200];
pickup_time = [0, 0, 0, 1, 1, 1, 1, 1, 1, 1, 2, 2, 3, 3, 3, 3, 4, 4, 4, 4, 4, 4, 5, 5, 5, 5, 6, 8, 8, 8, 8, 8, 8, 8, 9, 9, 9, 9, 10, 10, 10, 10];
delivery_time = [1, 1, 2, 2, 4, 4, 3, 2, 2, 3, 3, 4, 4, 5, 4, 8, 5, 8, 5, 8, 8, 6, 6, 8, 8, 7, 7, 10, 9, 9, 11, 10, 10, 9, 11, 10, 11, 10, 11, 11, 11, 11];

% transporter definition
total_capacity = 11000;
num_decks = 4;
capacity = [3000, 3000, 1000, 4000];

% ways out of decks
num_ways_out = 2;
paths_out = array3d(decks, ways_out, decks, [
% ways out of deck d1
2, 4, 0, 0, 3, 4, 0, 0, 

% ways out of deck d2
4, 0, 0, 0, 0, 0, 0, 0,	

% ways out of deck d3
4, 0, 0, 0, 0, 0, 0, 0,	

% ways out of deck d4
0, 0, 0, 0,	0, 0, 0, 0,	

]);

